c Output_time 26.03.2020 18:15:46_+0100 1585242946457797124
c ** Program information **
c program_name                          "QBRG_debug"
c version                               "0.3.20"
c date                                  "25.3.2020"
c gid_id                                "673970833836058123f633335630c185360d632e"
c author                                "Oliver Kullmann"
c url                                   "https://github.com/OKullmann/oklibrary/blob/master/Satisfiability/Transformers/Generators/Random/QBRG.cpp"
c ** Machine information **
c machine_name                          "chyna-Lenovo-G50-70"
c bogomips                              3791.08
c ** Compilation information **
c compiler_version                      "g++ 7.5.0"
c compilation_date                      "Mar_26_2020 11:16:30"
c compilation_options                   "--std=c++17 -pedantic -fmax-errors=5 -Wall -Wextra -g -D_GLIBCXX_DEBUG"
c NDEBUG                                0
c OPTIMIZE                              0
c ** Parameters **
c command-line                          "./QBRG_debug" "a40 e40 a40 40" "769*1,1|2-2,1|3-3,1|4-4,1" "" "1,t" ""
c output                                "QuBlRaGe_160_769_1585242946172843252.qdimacs"
c options                               "filtered,renamed"
c num_quantifier_blocks                 4
c  quantifier_blocks                    1:a1-40 2:e41-80 3:a81-120 4:e121-160
c num_clause-blocks                     1
c  clause-blocks                        769 * {1-40,1,1/2} | {41-80,1,1/2} | {81-120,1,1/2} | {121-160,1,1/2}
c num_e-seeds                           37+2=39
c  e-seeds                              1 0 1 0 5 160 2 40 0 40 1 40 0 40 1 769 4 1 1 1 1 2 2 2 1 1 2 3 3 1 1 2 4 4 1 1 2 1 1585242946172842111
p cnf 160 769
a 1 2 3 4 5 6 7 8 9 10 11 12 13 14 15 16 17 18 19 20 21 22 23 24 25 26 27 28 29 30 31 32 33 34 35 36 37 38 39 40 0
e 41 42 43 44 45 46 47 48 49 50 51 52 53 54 55 56 57 58 59 60 61 62 63 64 65 66 67 68 69 70 71 72 73 74 75 76 77 78 79 80 0
a 81 82 83 84 85 86 87 88 89 90 91 92 93 94 95 96 97 98 99 100 101 102 103 104 105 106 107 108 109 110 111 112 113 114 115 116 117 118 119 120 0
e 121 122 123 124 125 126 127 128 129 130 131 132 133 134 135 136 137 138 139 140 141 142 143 144 145 146 147 148 149 150 151 152 153 154 155 156 157 158 159 160 0
21 43 83 -121 0
21 -57 -86 -121 0
-27 -43 -91 -121 0
-24 -63 -99 -121 0
-4 71 106 -121 0
23 -60 110 -121 0
-27 61 112 -121 0
-14 65 -113 -121 0
26 51 114 -121 0
-20 75 116 -121 0
-29 -76 -118 -121 0
10 -64 -82 121 0
22 49 -89 121 0
5 45 91 121 0
2 -46 91 121 0
16 -75 91 121 0
-29 60 -102 121 0
15 77 -106 121 0
20 -57 110 121 0
34 67 110 121 0
-29 53 115 121 0
25 -55 -118 121 0
26 -78 84 -122 0
9 -61 -87 -122 0
-20 43 -90 -122 0
-22 -70 -102 -122 0
25 67 -103 -122 0
31 69 -106 -122 0
-8 63 -108 -122 0
30 -51 -113 -122 0
-38 79 -115 -122 0
-16 -65 119 -122 0
20 -57 -81 122 0
15 52 95 122 0
5 -47 -96 122 0
38 -43 -98 122 0
12 -49 99 122 0
4 -56 -101 122 0
17 55 102 122 0
-18 43 -106 122 0
36 -45 -108 122 0
-25 54 110 122 0
34 42 111 122 0
-34 71 111 122 0
-9 -72 -112 122 0
40 58 83 -123 0
-23 -55 -90 -123 0
2 50 114 -123 0
19 64 -117 -123 0
28 58 -118 -123 0
-27 -64 119 -123 0
40 76 -82 123 0
-34 70 83 123 0
-12 -65 86 123 0
-27 -50 -91 123 0
-7 -65 -92 123 0
35 -79 -96 123 0
16 57 96 123 0
11 -42 -97 123 0
27 53 119 123 0
-4 68 92 -124 0
-34 77 92 -124 0
-5 68 93 -124 0
33 68 -94 -124 0
18 71 -94 -124 0
24 -62 -105 -124 0
23 -75 105 -124 0
19 -73 -108 -124 0
2 -46 -112 -124 0
7 62 -82 124 0
-6 -70 87 124 0
15 -58 95 124 0
28 -57 -96 124 0
30 -53 -100 124 0
-3 -75 -101 124 0
10 66 102 124 0
4 -65 -119 124 0
3 -72 86 -125 0
12 48 -91 -125 0
23 -47 103 -125 0
36 -68 -107 -125 0
19 80 -117 -125 0
-12 -53 -118 -125 0
21 67 -119 -125 0
5 -78 85 125 0
36 -66 89 125 0
-3 -70 96 125 0
17 79 101 125 0
-20 -63 -103 125 0
-5 -42 103 125 0
37 49 88 -126 0
-27 67 -92 -126 0
-13 59 -94 -126 0
5 64 -100 -126 0
28 61 -102 -126 0
39 -71 104 -126 0
16 77 104 -126 0
3 -47 107 -126 0
-9 68 107 -126 0
1 -74 109 -126 0
-7 68 116 -126 0
-14 65 -117 -126 0
32 41 117 -126 0
-4 59 85 126 0
-16 -44 89 126 0
39 77 90 126 0
10 45 94 126 0
29 48 95 126 0
-9 -62 -97 126 0
36 -54 102 126 0
-8 50 107 126 0
-15 51 109 126 0
11 63 -110 126 0
-17 53 113 126 0
13 -54 -120 126 0
-7 -71 120 126 0
10 60 -83 -127 0
-32 52 84 -127 0
31 43 88 -127 0
3 61 90 -127 0
20 76 91 -127 0
15 -59 -92 -127 0
-39 -70 -94 -127 0
-12 68 96 -127 0
-28 75 -97 -127 0
32 -78 -120 -127 0
9 -56 120 -127 0
1 -79 84 127 0
40 -63 86 127 0
30 47 -109 127 0
-29 60 88 -128 0
31 -79 93 -128 0
-18 -60 -97 -128 0
-27 -66 -97 -128 0
-26 48 103 -128 0
26 -73 -107 -128 0
20 50 114 -128 0
8 78 81 128 0
-29 60 -85 128 0
-30 -46 85 128 0
-36 -56 87 128 0
-7 -48 -88 128 0
37 -71 -88 128 0
-5 -63 -90 128 0
-27 -75 93 128 0
14 78 98 128 0
-21 -64 -100 128 0
25 76 109 128 0
-14 66 -110 128 0
-34 -78 113 128 0
4 -62 117 128 0
14 -73 -118 128 0
-35 -62 119 128 0
-8 -65 81 -129 0
-7 71 -83 -129 0
11 -45 83 -129 0
-27 -54 84 -129 0
-24 56 -88 -129 0
-19 -80 98 -129 0
-9 55 101 -129 0
32 -48 -106 -129 0
34 -76 -112 -129 0
25 -50 114 -129 0
-4 -75 -118 -129 0
10 -70 -119 -129 0
-34 -51 -90 129 0
-5 70 93 129 0
18 62 95 129 0
-4 -75 -101 129 0
6 -60 106 129 0
37 -59 110 129 0
-37 -46 -116 129 0
33 -54 116 129 0
5 68 82 -130 0
-21 -59 90 -130 0
-12 -78 90 -130 0
25 -54 94 -130 0
8 51 102 -130 0
6 55 103 -130 0
13 52 -105 -130 0
27 -48 -106 -130 0
-33 -74 108 -130 0
-23 -50 112 -130 0
-31 -50 -119 -130 0
-27 50 -119 -130 0
-28 50 120 -130 0
24 50 -82 130 0
-17 -56 -85 130 0
-36 -62 -90 130 0
31 -70 92 130 0
-28 -64 93 130 0
-17 -70 -102 130 0
-24 -67 103 130 0
-19 51 -104 130 0
-37 48 -115 130 0
-7 41 83 -131 0
-38 -53 -86 -131 0
-7 60 -95 -131 0
-16 59 101 -131 0
-17 64 -102 -131 0
-34 -66 -105 -131 0
-26 -72 105 -131 0
5 67 108 -131 0
32 57 -113 -131 0
32 -69 119 -131 0
-27 -51 -89 131 0
-26 -78 89 131 0
22 -57 -99 131 0
32 64 -104 131 0
-18 54 -108 131 0
-4 -57 -110 131 0
16 -50 113 131 0
4 62 -81 -132 0
-23 -72 -81 -132 0
23 57 83 -132 0
-39 -42 90 -132 0
-18 69 -91 -132 0
-33 -53 -93 -132 0
-13 59 101 -132 0
23 50 -104 -132 0
23 66 -105 -132 0
-35 -51 106 -132 0
-31 80 107 -132 0
-24 42 -108 -132 0
-7 48 -108 -132 0
-30 -49 108 -132 0
-4 63 -111 -132 0
2 78 112 -132 0
14 56 119 -132 0
-17 71 -120 -132 0
-16 64 120 -132 0
-39 66 -88 132 0
-24 -80 -94 132 0
33 -70 96 132 0
-30 55 97 132 0
14 -79 97 132 0
13 64 104 132 0
-18 -78 113 132 0
-12 52 -116 132 0
-26 53 -117 132 0
9 -45 -118 132 0
28 55 -81 -133 0
35 -55 -85 -133 0
-23 46 86 -133 0
-20 -75 89 -133 0
-40 41 -105 -133 0
7 59 105 -133 0
-14 68 110 -133 0
15 44 -114 -133 0
-10 59 -82 133 0
-7 63 -86 133 0
-8 72 -94 133 0
1 66 97 133 0
1 69 -99 133 0
-13 61 100 133 0
-21 -66 -102 133 0
4 54 -117 133 0
20 79 118 133 0
-6 55 -120 133 0
-19 -75 -82 -134 0
31 -60 -92 -134 0
-3 60 95 -134 0
-23 -44 -97 -134 0
27 -59 98 -134 0
-20 64 106 -134 0
10 77 -117 -134 0
13 -75 117 -134 0
35 -43 120 -134 0
13 -64 82 134 0
6 78 -83 134 0
14 74 -86 134 0
15 -50 -87 134 0
-35 70 88 134 0
1 70 90 134 0
12 68 -97 134 0
28 -57 99 134 0
-25 67 100 134 0
7 -70 -101 134 0
-23 60 -110 134 0
16 -43 112 134 0
3 -63 113 134 0
-26 80 115 134 0
-13 -51 116 134 0
-18 56 116 134 0
24 51 -117 134 0
-30 80 118 134 0
-8 60 -86 -135 0
-17 -71 -86 -135 0
26 -42 -90 -135 0
29 -44 -91 -135 0
-7 59 -93 -135 0
27 -50 -97 -135 0
-11 54 104 -135 0
-3 -71 -110 -135 0
39 -57 110 -135 0
18 -52 115 -135 0
24 52 -86 135 0
-13 53 87 135 0
22 49 -92 135 0
-24 65 -99 135 0
-25 78 -109 135 0
-9 -53 -111 135 0
-28 54 -115 135 0
-6 -73 119 135 0
27 -47 -85 -136 0
-22 49 89 -136 0
11 -53 92 -136 0
30 77 -98 -136 0
-11 79 108 -136 0
35 -79 -111 -136 0
-32 66 111 -136 0
39 -72 113 -136 0
5 -57 -85 136 0
-31 44 -90 136 0
6 77 -91 136 0
7 -46 -98 136 0
-18 -45 -102 136 0
-18 77 -102 136 0
34 68 -106 136 0
4 -52 -108 136 0
30 -50 -114 136 0
21 -54 84 -137 0
-38 -55 89 -137 0
29 -75 -92 -137 0
18 44 93 -137 0
29 -70 94 -137 0
-21 -74 -95 -137 0
-2 -43 -98 -137 0
-29 -53 -106 -137 0
4 -62 -106 -137 0
-12 44 109 -137 0
-20 62 115 -137 0
11 52 116 -137 0
-9 71 -81 137 0
-11 56 -85 137 0
-25 49 87 137 0
33 -75 87 137 0
-6 -65 -97 137 0
9 47 -99 137 0
36 -64 -107 137 0
-32 -72 -108 137 0
-13 67 -110 137 0
-27 54 110 137 0
-36 76 114 137 0
-8 63 -115 137 0
36 80 120 137 0
9 -74 -88 -138 0
-2 -72 90 -138 0
3 -45 -91 -138 0
-29 -45 -94 -138 0
-31 64 -99 -138 0
39 -72 99 -138 0
-23 -52 -101 -138 0
-17 -64 -105 -138 0
35 -60 113 -138 0
7 63 115 -138 0
-4 59 -87 138 0
-40 68 89 138 0
-3 -76 -96 138 0
32 -50 -97 138 0
-16 56 104 138 0
5 -44 -114 138 0
10 68 120 138 0
-3 74 -83 -139 0
-27 77 89 -139 0
8 59 108 -139 0
-24 42 111 -139 0
21 -74 -113 -139 0
39 73 114 -139 0
2 -53 115 -139 0
-18 77 115 -139 0
19 79 -117 -139 0
-23 41 117 -139 0
-37 41 -118 -139 0
-11 -41 119 -139 0
-20 56 -102 139 0
20 66 109 139 0
2 51 114 139 0
-38 -62 116 139 0
-22 -69 82 -140 0
22 49 -84 -140 0
-21 -60 -90 -140 0
-15 -67 90 -140 0
-30 72 105 -140 0
-37 79 112 -140 0
16 -59 -113 -140 0
5 -41 114 -140 0
-21 -74 117 -140 0
-10 60 120 -140 0
39 -68 -87 140 0
-15 48 -91 140 0
4 -74 -91 140 0
34 -61 93 140 0
15 -44 -96 140 0
20 54 -96 140 0
-32 -57 -101 140 0
-37 48 103 140 0
30 -65 -106 140 0
-23 64 -109 140 0
20 80 -110 140 0
-20 44 116 140 0
-21 -69 -82 -141 0
-32 -60 90 -141 0
1 -57 -94 -141 0
-9 54 -103 -141 0
-2 -64 -106 -141 0
2 -55 106 -141 0
-37 -45 -108 -141 0
-23 54 -108 -141 0
25 -71 -111 -141 0
32 -46 -112 -141 0
-7 51 118 -141 0
5 71 -119 -141 0
-8 52 81 141 0
-4 44 83 141 0
-6 64 85 141 0
13 54 -89 141 0
35 -66 -93 141 0
12 70 -96 141 0
-18 -55 96 141 0
-26 65 -99 141 0
25 71 100 141 0
38 49 -115 141 0
-33 -56 -84 -142 0
17 -73 99 -142 0
-10 -47 -105 -142 0
-38 80 89 142 0
28 -80 -97 142 0
-5 59 104 142 0
7 52 -105 142 0
39 63 111 142 0
24 -45 112 142 0
10 70 -113 142 0
35 63 -118 142 0
32 63 -83 -143 0
21 -57 86 -143 0
-15 61 89 -143 0
-38 -62 96 -143 0
21 -42 97 -143 0
38 -80 98 -143 0
-31 -76 -106 -143 0
8 77 106 -143 0
33 64 108 -143 0
-7 69 110 -143 0
-12 -50 -84 143 0
-8 45 85 143 0
32 -58 87 143 0
-20 47 -96 143 0
22 -66 97 143 0
29 -50 -98 143 0
-19 57 -102 143 0
8 -54 -107 143 0
8 53 108 143 0
2 -54 -87 -144 0
17 58 -89 -144 0
31 -62 92 -144 0
-3 75 -99 -144 0
2 -41 99 -144 0
-34 -61 -108 -144 0
6 45 -111 -144 0
-31 75 -115 -144 0
36 73 118 -144 0
-8 54 85 144 0
-30 60 86 144 0
-22 41 95 144 0
-34 -56 -99 144 0
21 -66 -99 144 0
32 59 -100 144 0
-3 -65 103 144 0
-2 -52 -112 144 0
33 -63 114 144 0
-3 -71 116 144 0
-17 48 119 144 0
-26 -54 -85 -145 0
13 70 87 -145 0
-26 48 -88 -145 0
-23 -74 90 -145 0
-19 -54 91 -145 0
32 75 91 -145 0
-3 -69 95 -145 0
29 -74 98 -145 0
3 70 -99 -145 0
21 43 106 -145 0
19 68 -115 -145 0
-31 69 115 -145 0
-24 72 -119 -145 0
-16 41 83 145 0
30 50 83 145 0
-28 -49 -91 145 0
36 50 97 145 0
35 67 -100 145 0
-2 -41 -104 145 0
3 79 104 145 0
31 -50 -105 145 0
-4 -45 -106 145 0
25 58 -120 145 0
-40 74 84 -146 0
-19 -48 -93 -146 0
22 65 96 -146 0
-34 -62 -102 -146 0
-16 71 -115 -146 0
9 -69 -118 -146 0
-19 -48 118 -146 0
-36 -80 118 -146 0
-40 62 -120 -146 0
-16 -43 85 146 0
33 44 86 146 0
-33 61 86 146 0
-29 -53 -92 146 0
10 -77 102 146 0
4 -60 108 146 0
35 -80 111 146 0
-18 74 113 146 0
11 75 114 146 0
26 -80 120 146 0
-19 -71 -82 -147 0
-40 -43 -87 -147 0
-13 -44 87 -147 0
20 -53 91 -147 0
-6 -67 92 -147 0
5 -73 -93 -147 0
-37 50 98 -147 0
22 -70 -99 -147 0
-27 53 99 -147 0
25 -57 -105 -147 0
-1 -56 -106 -147 0
-9 55 -108 -147 0
16 -67 -112 -147 0
-17 43 115 -147 0
33 54 120 -147 0
13 63 85 147 0
38 -46 -93 147 0
38 -63 102 147 0
26 -65 -112 147 0
-36 -59 117 147 0
-38 45 -120 147 0
1 -67 -120 147 0
39 -42 81 -148 0
39 46 88 -148 0
-21 45 -96 -148 0
3 -76 96 -148 0
35 -48 110 -148 0
22 -74 111 -148 0
34 56 -119 -148 0
30 67 119 -148 0
3 -63 -84 148 0
10 44 -92 148 0
-9 -48 -93 148 0
-8 66 102 148 0
25 76 104 148 0
11 -45 -107 148 0
27 -42 109 148 0
25 70 109 148 0
24 71 -81 -149 0
-3 -71 83 -149 0
13 -58 87 -149 0
31 55 -95 -149 0
21 53 95 -149 0
-1 -60 -99 -149 0
-16 -78 108 -149 0
-3 77 -115 -149 0
39 80 -116 -149 0
-35 -75 82 149 0
-34 45 89 149 0
-19 -51 98 149 0
-15 44 104 149 0
3 50 104 149 0
-23 -78 105 149 0
25 65 -108 149 0
-16 -48 109 149 0
-31 -44 -114 149 0
-21 -57 -114 149 0
39 46 82 -150 0
30 -79 -86 -150 0
-6 50 86 -150 0
-6 54 -88 -150 0
-8 -62 89 -150 0
-34 -44 93 -150 0
-9 65 -94 -150 0
7 69 -100 -150 0
33 74 108 -150 0
39 59 -89 150 0
-6 52 91 150 0
32 -57 91 150 0
11 -79 91 150 0
2 -71 -103 150 0
28 71 104 150 0
28 -66 86 -151 0
16 -57 -87 -151 0
-10 -48 -89 -151 0
27 56 89 -151 0
5 -44 91 -151 0
12 -50 92 -151 0
36 -42 95 -151 0
5 -65 95 -151 0
1 -80 -100 -151 0
24 -45 82 151 0
-40 70 98 151 0
-25 69 106 151 0
27 65 109 151 0
-34 75 116 151 0
34 79 -120 151 0
-26 -50 82 -152 0
39 -49 99 -152 0
-35 -75 -109 -152 0
-1 44 111 -152 0
-19 74 117 -152 0
3 -67 -81 152 0
-4 -67 -82 152 0
-6 67 -82 152 0
-37 -52 -87 152 0
27 -51 -90 152 0
-27 -50 -114 152 0
-4 -50 81 -153 0
-27 -51 -82 -153 0
12 62 -84 -153 0
7 64 -84 -153 0
8 72 88 -153 0
34 68 -91 -153 0
33 -79 -91 -153 0
-17 -45 93 -153 0
2 45 -99 -153 0
-3 54 106 -153 0
19 72 -109 -153 0
19 -58 111 -153 0
-32 -48 112 -153 0
-36 75 -82 153 0
14 44 -93 153 0
-19 52 -93 153 0
38 68 -93 153 0
-13 -56 -94 153 0
-9 -69 -99 153 0
33 -60 -101 153 0
22 -65 -116 153 0
-5 -76 117 153 0
5 -44 -120 153 0
-39 -73 -82 -154 0
-21 61 85 -154 0
11 -47 87 -154 0
-2 47 -91 -154 0
-20 49 102 -154 0
13 76 -103 -154 0
-35 -41 103 -154 0
-33 -68 107 -154 0
5 -59 -108 -154 0
29 56 81 154 0
-36 50 -83 154 0
-22 48 -88 154 0
26 54 88 154 0
13 -55 -89 154 0
4 -71 89 154 0
10 -47 91 154 0
-32 53 94 154 0
-26 -78 -99 154 0
-1 -67 -102 154 0
-3 -68 102 154 0
-3 -45 -104 154 0
26 -71 108 154 0
-9 -63 -87 -155 0
21 51 90 -155 0
26 71 -94 -155 0
6 -75 -96 -155 0
7 66 -109 -155 0
-7 43 109 -155 0
-21 46 90 155 0
-19 -51 90 155 0
-5 -58 90 155 0
3 77 -91 155 0
19 -73 93 155 0
-36 69 94 155 0
24 -41 -96 155 0
-2 -64 -102 155 0
24 58 -104 155 0
31 -48 107 155 0
3 -41 -112 155 0
2 50 -116 155 0
-6 52 -116 155 0
-2 -59 84 -156 0
10 -69 86 -156 0
-17 72 86 -156 0
-36 69 -87 -156 0
16 46 90 -156 0
38 62 -92 -156 0
13 41 -94 -156 0
-39 -75 -94 -156 0
-36 -80 -97 -156 0
18 52 99 -156 0
37 68 -100 -156 0
22 56 107 -156 0
30 -66 -108 -156 0
-12 66 110 -156 0
8 -52 -111 -156 0
25 54 -113 -156 0
10 -69 113 -156 0
25 55 -120 -156 0
7 64 -89 156 0
-1 -59 -91 156 0
21 -73 -91 156 0
6 43 93 156 0
20 51 94 156 0
10 -52 -101 156 0
37 -60 102 156 0
-38 -53 103 156 0
12 65 105 156 0
24 53 -107 156 0
-30 -62 110 156 0
29 46 113 156 0
36 77 118 156 0
36 65 119 156 0
8 79 82 -157 0
25 -78 -86 -157 0
-12 57 97 -157 0
36 71 -102 -157 0
-21 52 -116 -157 0
-5 73 -84 157 0
28 76 -89 157 0
9 78 95 157 0
-31 59 101 157 0
-2 80 109 157 0
8 -43 120 157 0
-39 66 -83 -158 0
31 60 -88 -158 0
-25 -56 -90 -158 0
38 79 -98 -158 0
-25 80 106 -158 0
3 -58 -111 -158 0
-17 66 -115 -158 0
34 -53 -116 -158 0
-5 46 83 158 0
4 -51 95 158 0
7 -51 96 158 0
23 44 99 158 0
25 -47 -103 158 0
10 74 -104 158 0
-35 41 104 158 0
-31 -52 -108 158 0
-11 67 112 158 0
-4 46 -115 158 0
10 75 -82 -159 0
-3 69 -88 -159 0
-27 -41 101 -159 0
-13 61 106 -159 0
1 65 -109 -159 0
34 -57 -112 -159 0
-14 -69 82 159 0
35 68 83 159 0
1 43 86 159 0
-36 63 90 159 0
22 60 99 159 0
7 54 -106 159 0
39 51 -108 159 0
39 45 -115 159 0
4 49 116 159 0
3 52 116 159 0
16 47 120 159 0
39 -43 -85 -160 0
32 66 -90 -160 0
-8 61 90 -160 0
-29 43 -94 -160 0
-26 47 -94 -160 0
17 70 -94 -160 0
2 -44 -98 -160 0
29 74 107 -160 0
20 48 110 -160 0
-24 66 114 -160 0
18 66 -120 -160 0
15 -67 120 -160 0
15 50 85 160 0
17 68 103 160 0
